NAME : n150w20.005.846.tour
COMMENT : Length = 846
COMMENT : Found by LKH [Keld Helsgaun] Tue May  2 05:18:31 2017
TYPE : TOUR
DIMENSION : 151
TOUR_SECTION
1
107
32
65
12
120
118
147
133
104
136
5
16
62
88
63
73
28
8
19
66
48
101
35
84
116
106
30
11
29
75
54
121
24
90
143
74
150
109
6
145
3
56
112
140
99
13
34
25
102
27
82
39
98
76
135
87
77
40
59
81
97
113
26
31
61
18
68
44
60
45
138
141
91
46
21
37
69
23
126
146
92
53
131
117
103
83
57
64
67
125
20
41
132
71
55
100
72
17
9
130
122
96
22
86
15
7
47
149
10
110
51
58
129
128
2
42
134
50
14
79
105
49
137
70
85
123
78
124
111
52
80
139
93
95
94
127
115
43
108
38
89
144
119
36
114
4
148
33
151
142
-1
EOF
